c WARNING: for repeatability, setting FPU to use double precision
d VARIABLES            73512        
d CONSTRAINTS          260596       
c ============================[ Problem Statistics ]=============================
c |                                                                             |
c |  Number of variables:         73512                                         |
c |  Number of clauses:          260596                                         |
c |  Parse time:                   0.05 s                                       |
c |                                                                             |
c ============================[ Search Statistics ]==============================
c | Conflicts |          ORIGINAL         |          LEARNT          | Progress |
c |           |    Vars  Clauses Literals |    Limit  Clauses Lit/Cl |          |
c ===============================================================================
c |       100 |   53833   209770   527739 |    76915      100     23 | 26.770 % |
c |       250 |   53833   209770   527739 |    84607      250     14 | 26.770 % |
c |       475 |   53833   209770   527739 |    93067      475     26 | 26.770 % |
c |       812 |   53833   209770   527739 |   102374      812     22 | 26.770 % |
c |      1318 |   53833   209770   527739 |   112612     1318     23 | 26.770 % |
c |      2077 |   53833   209770   527739 |   123873     2077     31 | 26.770 % |
c |      3216 |   53833   209770   527739 |   136260     3216     50 | 26.770 % |
c |      4924 |   53833   209770   527739 |   149886     4924     68 | 26.770 % |
c |      7486 |   53833   209770   527739 |   164875     7486     85 | 26.770 % |
c |     11330 |   53833   209770   527739 |   181363    11330     80 | 26.770 % |
c |     17096 |   53833   209770   527739 |   199499    17096     77 | 26.770 % |
c |     25745 |   53833   209770   527739 |   219449    25745     73 | 26.770 % |
c |     38719 |   53833   209770   527739 |   241394    38719     69 | 26.770 % |
c |     58180 |   53833   209770   527739 |   265533    58180     70 | 26.770 % |
c |     87372 |   53833   209770   527739 |   292087    87372     66 | 26.770 % |
c |    131161 |   53832   209760   527716 |   321295   131159     61 | 26.771 % |
c |    196845 |   53828   209726   527639 |   353425   196826     58 | 26.777 % |
c |    295371 |   53827   209716   527616 |   388767   295349     58 | 26.778 % |
c |    443160 |   53823   209676   527524 |   427644    58270     57 | 26.783 % |
c |    664843 |   53822   209668   527506 |   470409   279950     56 | 26.785 % |
c |    997368 |   53813   209590   527329 |   517450   148470     58 | 26.797 % |
c ===============================================================================
c restarts              : 2363
c conflicts             : 1245911        (2571 /sec)
c decisions             : 1939313        (0.00 % random) (4002 /sec)
c propagations          : 1232664123     (2543892 /sec)
c conflict literals     : 68871197       (54.54 % deleted)
d RESTARTS             2363
d FAILURES             1245911      
d NODES                1939313      
d BACKTRACKS           1939313      
d PROPAGATIONS         1232664123   
d NOGOODSIZE           55.28 
d MEMORY               200.00 
d TIME                 484.558 

s UNSATISFIABLE
